36
120
96	3
95	1
94	1
93	1
87	1
86	1
83	1
81	3
79	1
78	1
75	1
73	1
69	1
66	1
65	1
63	1
62	1
61	1
59	1
58	1
57	1
56	1
55	3
51	1
50	1
48	1
46	1
43	4
41	1
39	1
37	3
36	1
35	1
31	1
30	3
25	2
